n_res = 4;
rc = [ 18, 20, 18, 21 ];
n_tasks = 15;
d = [ 3, 1, 3, 1, 150, 50, 225, 125, 200, 250, 50, 3, 5, 1, 7 ];
rr = [| 0, 0, 10, 2, 5, 1, 0, 0, 7, 0, 0, 8, 0, 0, 0
      | 0, 2, 5, 0, 3, 9, 6, 0, 4, 3, 6, 0, 6, 4, 0
      | 0, 0, 0, 2, 1, 3, 10, 6, 0, 0, 0, 9, 5, 0, 2
      | 9, 0, 9, 3, 0, 7, 0, 0, 1, 7, 7, 0, 0, 0, 7 |];
suc = [ { 9, 14 },
       { 10, 12 },
       { 4, 5, 6 },
       { 15 },
       { 7, 8, 11 },
       { 9 },
       { 15 },
       { 13 },
       { 10 },
       {  },
       { 15 },
       {  },
       {  },
       {  },
       {  } ];
